c A SAT instance generated from a 3-CNF formula that had 12 clauses and 6 variables
p cnf 6 12
-6 -5 1 0
5 2 1 0
4 -1 -5 0
2 -1 6 0
-2 6 1 0
-3 6 -5 0
2 -4 5 0
-4 -2 6 0
-4 -3 -1 0
4 3 -6 0
-4 -1 -5 0
-5 3 -4 0
